[runlim] version:		1.10
[runlim] time limit:		311040000 seconds
[runlim] real time limit:	900 seconds
[runlim] space limit:		8000 MB
[runlim] argv[0]:		python3
[runlim] argv[1]:		cp.py
[runlim] argv[2]:		graph01
[runlim] start:			Sat Jan 17 05:23:15 2026
[runlim] main pid:		126890
Building CP model...
Build time: 0.72s
Solving CP Optimizer...
 ! --------------------------------------------------- CP Optimizer 22.1.1.0 --
 ! Minimization problem - 6968 variables, 85938 constraints
 ! Presolve      : 86140 extractables eliminated
 ! LogVerbosity         = Terse
 ! Initial process time : 0.81s (0.81s extraction + 0.00s propagation)
 !  . Log search space  : 6968.0 (before), 6968.0 (after)
 !  . Memory usage      : 17.4 MB (before), 17.4 MB (after)
 ! Using parallel search with 12 workers.
 ! ----------------------------------------------------------------------------
 !          Best Branches  Non-fixed    W       Branch decision
                        0       6968                 -
 + New bound is 0
                        0       6968    1            -
 + New bound is 1
 *            48      206  1.77s        3      (gap is 97.92%)
 *            47      520  1.77s        3      (gap is 97.87%)
              47      763       5222    4   F     0 != x_174_750
 + New bound is 2 (gap is 95.74%)
 *            46      829  1.79s        6      (gap is 95.65%)
 *            39     2458  2.22s       12      (gap is 94.87%)
 *            38     3723  2.63s        5      (gap is 94.74%)
 *            37     5422  2.84s        6      (gap is 94.59%)
 *            22     4706  3.07s        8      (gap is 90.91%)
[runlim] sample:		55.5 time, 10.1 real, 903.8 MB
 *            21    34362  10.97s      12      (gap is 90.48%)
 *            20    44194  13.54s       9      (gap is 90.00%)
 *            19    44851  13.77s       9      (gap is 89.47%)
 *            18    45187  13.99s       9      (gap is 88.89%)
[runlim] sample:		127.1 time, 20.1 real, 938.7 MB
[runlim] sample:		205.5 time, 30.1 real, 990.8 MB
[runlim] sample:		287.6 time, 40.1 real, 1005.1 MB
[runlim] sample:		367.3 time, 50.1 real, 1015.6 MB
[runlim] sample:		453.9 time, 60.1 real, 1022.7 MB
[runlim] sample:		533.9 time, 70.1 real, 1031.7 MB
[runlim] sample:		616.8 time, 80.1 real, 1037.5 MB
[runlim] sample:		705.0 time, 90.1 real, 1038.1 MB
[runlim] sample:		794.0 time, 100.1 real, 1041.7 MB
[runlim] sample:		880.6 time, 110.1 real, 1042.0 MB
[runlim] sample:		967.1 time, 120.1 real, 1042.7 MB
[runlim] sample:		1048.9 time, 130.1 real, 1042.7 MB
              18     381k       1957    1   F     0 != x_170_254
 + New bound is 3 (gap is 83.33%)
[runlim] sample:		1132.0 time, 140.1 real, 1046.2 MB
[runlim] sample:		1215.8 time, 150.1 real, 1046.8 MB
              18     387k       4893    4   F     1 != x_23_170
 + New bound is 5 (gap is 72.22%)
[runlim] sample:		1300.9 time, 160.1 real, 1047.1 MB
[runlim] sample:		1384.7 time, 170.1 real, 1047.2 MB
[runlim] sample:		1467.5 time, 180.1 real, 1047.2 MB
[runlim] sample:		1552.1 time, 190.1 real, 1047.5 MB
[runlim] sample:		1640.6 time, 200.1 real, 1047.5 MB
[runlim] sample:		1731.8 time, 210.1 real, 1047.7 MB
[runlim] sample:		1816.7 time, 220.1 real, 1047.8 MB
[runlim] sample:		1902.3 time, 230.1 real, 1048.7 MB
[runlim] sample:		1987.0 time, 240.1 real, 1048.8 MB
[runlim] sample:		2072.0 time, 250.1 real, 1048.8 MB
[runlim] sample:		2161.5 time, 260.1 real, 1048.8 MB
[runlim] sample:		2249.4 time, 270.1 real, 1048.8 MB
[runlim] sample:		2337.0 time, 280.1 real, 1048.8 MB
[runlim] sample:		2420.4 time, 290.1 real, 1048.8 MB
[runlim] sample:		2506.7 time, 300.1 real, 1048.8 MB
[runlim] sample:		2590.2 time, 310.1 real, 1049.1 MB
[runlim] sample:		2674.2 time, 320.1 real, 1049.3 MB
[runlim] sample:		2756.9 time, 330.1 real, 1051.2 MB
[runlim] sample:		2841.2 time, 340.1 real, 1051.3 MB
[runlim] sample:		2926.8 time, 350.1 real, 1051.5 MB
[runlim] sample:		3009.8 time, 360.1 real, 1051.6 MB
[runlim] sample:		3092.5 time, 370.1 real, 1051.6 MB
[runlim] sample:		3173.6 time, 380.1 real, 1053.0 MB
[runlim] sample:		3262.5 time, 390.1 real, 1053.2 MB
[runlim] sample:		3348.5 time, 400.1 real, 1053.2 MB
[runlim] sample:		3434.0 time, 410.1 real, 1053.2 MB
[runlim] sample:		3516.4 time, 420.1 real, 1054.1 MB
[runlim] sample:		3596.0 time, 430.1 real, 1054.1 MB
[runlim] sample:		3677.5 time, 440.1 real, 1054.2 MB
[runlim] sample:		3759.9 time, 450.1 real, 1054.6 MB
[runlim] sample:		3847.5 time, 460.1 real, 1054.6 MB
[runlim] sample:		3934.5 time, 470.1 real, 1054.6 MB
[runlim] sample:		4012.8 time, 480.1 real, 1054.6 MB
[runlim] sample:		4092.2 time, 490.1 real, 1054.8 MB
[runlim] sample:		4168.8 time, 500.1 real, 1054.8 MB
[runlim] sample:		4249.6 time, 510.1 real, 1054.8 MB
[runlim] sample:		4334.0 time, 520.1 real, 1054.8 MB
[runlim] sample:		4417.6 time, 530.1 real, 1055.0 MB
[runlim] sample:		4503.0 time, 540.1 real, 1055.3 MB
[runlim] sample:		4589.3 time, 550.1 real, 1055.3 MB
[runlim] sample:		4677.0 time, 560.1 real, 1055.3 MB
[runlim] sample:		4760.7 time, 570.1 real, 1055.3 MB
[runlim] sample:		4845.0 time, 580.1 real, 1055.3 MB
[runlim] sample:		4925.2 time, 590.1 real, 1055.3 MB
[runlim] sample:		5011.8 time, 600.1 real, 1055.3 MB
[runlim] sample:		5096.0 time, 610.1 real, 1055.3 MB
[runlim] sample:		5178.8 time, 620.1 real, 1055.3 MB
[runlim] sample:		5254.4 time, 630.1 real, 1055.3 MB
[runlim] sample:		5327.0 time, 640.1 real, 1055.3 MB
[runlim] sample:		5398.0 time, 650.1 real, 1057.1 MB
[runlim] sample:		5471.2 time, 660.1 real, 1058.2 MB
[runlim] sample:		5549.3 time, 670.1 real, 1059.0 MB
[runlim] sample:		5634.5 time, 680.1 real, 1059.0 MB
[runlim] sample:		5717.4 time, 690.1 real, 1059.0 MB
[runlim] sample:		5802.7 time, 700.1 real, 1059.1 MB
[runlim] sample:		5885.0 time, 710.1 real, 1059.1 MB
[runlim] sample:		5970.2 time, 720.1 real, 1059.2 MB
[runlim] sample:		6054.8 time, 730.1 real, 1059.2 MB
[runlim] sample:		6140.7 time, 740.1 real, 1059.2 MB
[runlim] sample:		6220.9 time, 750.1 real, 1059.2 MB
[runlim] sample:		6296.1 time, 760.1 real, 1059.2 MB
[runlim] sample:		6373.8 time, 770.1 real, 1059.2 MB
[runlim] sample:		6453.0 time, 780.1 real, 1059.2 MB
[runlim] sample:		6527.9 time, 790.1 real, 1059.2 MB
[runlim] sample:		6605.5 time, 800.1 real, 1059.2 MB
[runlim] sample:		6686.6 time, 810.1 real, 1059.3 MB
[runlim] sample:		6762.1 time, 820.1 real, 1059.5 MB
[runlim] sample:		6840.9 time, 830.1 real, 1059.5 MB
[runlim] sample:		6926.2 time, 840.1 real, 1059.5 MB
[runlim] sample:		7007.8 time, 850.1 real, 1059.5 MB
[runlim] sample:		7090.2 time, 860.1 real, 1059.6 MB
[runlim] sample:		7171.0 time, 870.1 real, 1059.6 MB
[runlim] sample:		7249.9 time, 880.1 real, 1059.8 MB
[runlim] sample:		7329.0 time, 890.1 real, 1059.8 MB
[runlim] sample:		7414.5 time, 900.1 real, 1059.8 MB
[runlim] end:			Sat Jan 17 05:38:15 2026
[runlim] status:		out of time
[runlim] result:		2
[runlim] children:		8992
[runlim] real:			900.09 seconds
[runlim] time:			7414.45 seconds
[runlim] space:			1059.8 MB
[runlim] samples:		9000
